c Generated map
c Size: 9 * 9, weights in range: 1 to 10, walls: True, with ratio 0.05
c dim 7 of 8
c
p sp 81 132
c graph contains 81 nodes and 132 arcs
c
a 1 10 10
a 10 1 10
a 1 2 3
a 2 1 3
a 2 11 10
a 11 2 10
a 2 3 4
a 3 2 4
a 3 12 7
a 12 3 7
a 3 4 6
a 4 3 6
a 4 13 1
a 13 4 1
a 4 5 2
a 5 4 2
a 5 14 10
a 14 5 10
a 5 6 9
a 6 5 9
a 6 15 1
a 15 6 1
a 6 7 2
a 7 6 2
a 7 16 9
a 16 7 9
a 7 8 2
a 8 7 2
a 8 17 9
a 17 8 9
a 8 9 5
a 9 8 5
a 9 18 6
a 18 9 6
a 10 19 5
a 19 10 5
a 10 11 1
a 11 10 1
a 11 20 10
a 20 11 10
a 11 12 9
a 12 11 9
a 12 21 9
a 21 12 9
a 12 13 6
a 13 12 6
a 13 22 4
a 22 13 4
a 13 14 8
a 14 13 8
a 14 23 1
a 23 14 1
a 14 15 4
a 15 14 4
a 15 24 7
a 24 15 7
a 15 16 1
a 16 15 1
a 16 25 7
a 25 16 7
a 16 17 8
a 17 16 8
a 17 26 9
a 26 17 9
a 17 18 8
a 18 17 8
a 18 27 2
a 27 18 2
a 19 28 7
a 28 19 7
a 19 20 5
a 20 19 5
a 20 29 8
a 29 20 8
a 20 21 1
a 21 20 1
a 21 30 7
a 30 21 7
a 21 22 7
a 22 21 7
a 22 31 7
a 31 22 7
a 22 23 10
a 23 22 10
a 23 32 7
a 32 23 7
a 23 24 6
a 24 23 6
a 24 33 9
a 33 24 9
a 24 25 6
a 25 24 6
a 25 34 3
a 34 25 3
a 25 26 4
a 26 25 4
a 26 27 5
a 27 26 5
a 28 37 7
a 37 28 7
a 28 29 4
a 29 28 4
a 29 38 6
a 38 29 6
a 29 30 10
a 30 29 10
a 30 39 3
a 39 30 3
a 30 31 5
a 31 30 5
a 31 40 9
a 40 31 9
a 31 32 6
a 32 31 6
a 32 41 2
a 41 32 2
a 32 33 6
a 33 32 6
a 33 42 3
a 42 33 3
a 33 34 1
a 34 33 1
a 34 43 8
a 43 34 8
a 37 46 4
a 46 37 4
a 37 38 6
a 38 37 6
a 38 47 6
a 47 38 6
a 38 39 6
a 39 38 6
a 39 48 1
a 48 39 1
a 39 40 5
a 40 39 5
a 40 49 7
a 49 40 7
a 40 41 1
a 41 40 1
a 41 50 10
a 50 41 10
a 41 42 10
a 42 41 10
a 42 51 1
a 51 42 1
a 42 43 2
a 43 42 2
a 43 52 7
a 52 43 7
a 43 44 5
a 44 43 5
a 44 53 7
a 53 44 7
a 44 45 10
a 45 44 10
a 45 54 1
a 54 45 1
a 46 55 2
a 55 46 2
a 46 47 10
a 47 46 10
a 47 56 1
a 56 47 1
a 47 48 4
a 48 47 4
a 48 57 9
a 57 48 9
a 48 49 1
a 49 48 1
a 49 58 6
a 58 49 6
a 49 50 3
a 50 49 3
a 50 59 2
a 59 50 2
a 50 51 3
a 51 50 3
a 51 60 9
a 60 51 9
a 51 52 7
a 52 51 7
a 52 61 6
a 61 52 6
a 52 53 4
a 53 52 4
a 53 62 8
a 62 53 8
a 53 54 1
a 54 53 1
a 55 64 6
a 64 55 6
a 55 56 3
a 56 55 3
a 56 65 4
a 65 56 4
a 56 57 7
a 57 56 7
a 57 66 8
a 66 57 8
a 57 58 6
a 58 57 6
a 58 67 9
a 67 58 9
a 58 59 8
a 59 58 8
a 59 68 7
a 68 59 7
a 59 60 1
a 60 59 1
a 60 69 4
a 69 60 4
a 60 61 9
a 61 60 9
a 61 70 9
a 70 61 9
a 61 62 4
a 62 61 4
a 62 71 10
a 71 62 10
a 64 73 5
a 73 64 5
a 64 65 5
a 65 64 5
a 65 74 2
a 74 65 2
a 65 66 8
a 66 65 8
a 66 75 9
a 75 66 9
a 66 67 4
a 67 66 4
a 67 68 5
a 68 67 5
a 68 77 7
a 77 68 7
a 68 69 3
a 69 68 3
a 69 78 4
a 78 69 4
a 69 70 4
a 70 69 4
a 70 79 1
a 79 70 1
a 70 71 6
a 71 70 6
a 71 80 10
a 80 71 10
a 71 72 5
a 72 71 5
a 72 81 10
a 81 72 10
a 73 74 1
a 74 73 1
a 74 75 8
a 75 74 8
a 77 78 7
a 78 77 7
a 78 79 7
a 79 78 7
a 79 80 5
a 80 79 5
a 80 81 7
a 81 80 7
